* ENCODING=ISO-8859-1
NAME          CPLEX
ROWS
 N  obj1    
 G  c1      
 G  c2      
 G  c3      
 G  c4      
 G  c5      
 G  c6      
 G  c7      
 G  c8      
 G  c9      
 G  c10     
 G  c11     
 G  c12     
 G  c13     
 G  c14     
 G  c15     
 G  c16     
 G  c17     
 G  c18     
 G  c19     
 G  c20     
 G  c21     
 G  c22     
 G  c23     
 G  c24     
 G  c25     
 G  c26     
 G  c27     
 G  c28     
 G  c29     
 G  c30     
COLUMNS
    MARK0000  'MARKER'                 'INTORG'
    x1        obj1                            1
    x1        c18                           677
    x1        c30                           174
    x2        obj1                            1
    x2        c1                            340
    x2        c12                           456
    x2        c16                           654
    x3        obj1                            1
    x3        c5                            354
    x3        c6                            741
    x3        c15                           891
    x3        c16                           850
    x4        obj1                            1
    x4        c3                            100
    x4        c25                           131
    x4        c27                           754
    x4        c30                           517
    x5        obj1                            1
    x5        c2                            922
    x5        c7                            269
    x5        c12                           558
    x5        c17                           824
    x5        c18                           305
    x6        obj1                            1
    x6        c6                            404
    x6        c7                            379
    x6        c20                           570
    x6        c29                           899
    x7        obj1                            1
    x7        c5                            290
    x7        c10                           355
    x7        c11                           122
    x7        c26                           926
    x8        obj1                            1
    x8        c5                            337
    x8        c8                            265
    x9        obj1                            1
    x9        c4                            760
    x9        c6                            819
    x9        c11                           185
    x9        c15                           105
    x9        c23                           704
    x10       obj1                            1
    x10       c13                           331
    x10       c14                           186
    x10       c18                           375
    x10       c27                           277
    x11       obj1                            1
    x11       c1                            842
    x11       c9                            630
    x11       c11                           524
    x11       c16                           260
    x11       c27                           719
    x12       obj1                            1
    x12       c13                           854
    x12       c21                           246
    x13       obj1                            1
    x13       c1                            734
    x13       c19                           284
    x13       c20                           909
    x13       c26                           657
    x13       c30                           487
    x14       obj1                            1
    x15       obj1                            1
    x15       c19                           370
    x15       c22                           514
    x16       obj1                            1
    x16       c5                            683
    x16       c6                            415
    x16       c22                           251
    x17       obj1                            1
    x17       c10                           245
    x18       obj1                            1
    x18       c5                            612
    x18       c19                           666
    x19       obj1                            1
    x20       obj1                            1
    x20       c13                           100
    x20       c14                           580
    x20       c25                           696
    x20       c30                           471
    x21       obj1                            1
    x21       c13                           184
    x21       c25                           926
    x21       c30                           637
    x22       obj1                            1
    x22       c7                            311
    x22       c15                           973
    x22       c23                           114
    x22       c27                           604
    x23       obj1                            1
    x23       c17                           161
    x23       c27                           611
    x23       c28                           874
    x24       obj1                            1
    x24       c26                           864
    x24       c27                           672
    x24       c29                           240
    x24       c30                           462
    x25       obj1                            1
    x26       obj1                            1
    x26       c4                            726
    x26       c6                            632
    x26       c16                           144
    x26       c29                           410
    x27       obj1                            1
    x27       c18                           933
    x27       c25                           105
    x27       c28                           535
    x28       obj1                            1
    x28       c2                            131
    x28       c4                            293
    x28       c16                           887
    x28       c18                           145
    x28       c27                           743
    x29       obj1                            1
    x29       c6                            340
    x29       c8                            261
    x29       c25                           658
    x30       obj1                            1
    x30       c7                            928
    x30       c18                           151
    x31       obj1                            1
    x31       c3                            194
    x31       c11                           468
    x31       c17                           694
    x31       c18                           768
    x31       c20                           468
    x31       c21                           997
    x31       c25                           729
    x32       obj1                            1
    x32       c23                           599
    x33       obj1                            1
    x33       c12                           458
    x33       c22                           936
    x34       obj1                            1
    x34       c30                           394
    x35       obj1                            1
    x35       c18                           177
    x35       c20                           940
    x35       c22                           875
    x36       obj1                            1
    x36       c3                            927
    x36       c11                           808
    x36       c13                           366
    x36       c26                           337
    x37       obj1                            1
    x37       c11                           549
    x37       c12                           629
    x37       c17                           505
    x38       obj1                            1
    x38       c1                            351
    x38       c11                           975
    x38       c18                           129
    x39       obj1                            1
    x39       c8                            985
    x39       c14                           896
    x39       c15                           534
    x40       obj1                            1
    x40       c8                            783
    x40       c13                           196
    x40       c15                           867
    x40       c26                           923
    x40       c29                           328
    x41       obj1                            1
    x41       c15                           929
    x41       c27                           972
    x42       obj1                            1
    x42       c1                            835
    x42       c11                           340
    x43       obj1                            1
    x43       c9                            225
    x43       c13                           352
    x43       c20                           584
    x43       c27                           632
    x44       obj1                            1
    x44       c5                            642
    x44       c12                           111
    x44       c13                           290
    x44       c16                           109
    x44       c19                           734
    x44       c22                           170
    x45       obj1                            1
    x45       c5                            698
    x45       c11                           606
    x45       c26                           402
    x46       obj1                            1
    x46       c8                            956
    x46       c29                           992
    x47       obj1                            1
    x47       c24                           478
    x48       obj1                            1
    x48       c16                           935
    x48       c17                           452
    x48       c22                           583
    x48       c25                           966
    x49       obj1                            1
    x49       c2                            919
    x49       c5                            529
    x49       c6                            231
    x49       c12                           543
    x49       c13                           236
    x49       c28                           300
    x50       obj1                            1
    x50       c2                            213
    x50       c7                            444
    x50       c20                           572
    x50       c30                           520
    x51       obj1                            1
    x51       c10                           757
    x51       c24                           425
    x52       obj1                            1
    x52       c7                            330
    x52       c19                           341
    x52       c23                           394
    x53       obj1                            1
    x53       c5                            838
    x53       c7                            732
    x53       c10                           113
    x53       c22                           393
    x54       obj1                            1
    x54       c7                            810
    x54       c8                            664
    x54       c9                            858
    x54       c15                           391
    x55       obj1                            1
    x55       c2                            325
    x55       c17                           920
    x55       c26                           424
    x56       obj1                            1
    x56       c7                            313
    x56       c17                           889
    x56       c29                           984
    x57       obj1                            1
    x57       c6                            364
    x57       c26                           926
    x58       obj1                            1
    x58       c1                            503
    x58       c19                           898
    x58       c21                           231
    x59       obj1                            1
    x59       c6                            692
    x59       c8                            690
    x59       c12                           577
    x59       c23                           977
    x59       c24                           731
    x60       obj1                            1
    x60       c8                            714
    x60       c10                           525
    x60       c26                           428
    MARK0001  'MARKER'                 'INTEND'
RHS
    rhs       c1                           1803
    rhs       c2                           1255
    rhs       c3                            611
    rhs       c4                            890
    rhs       c5                           2492
    rhs       c6                           2319
    rhs       c7                           2258
    rhs       c8                           2659
    rhs       c9                            857
    rhs       c10                           998
    rhs       c11                          2289
    rhs       c12                          1666
    rhs       c13                          1455
    rhs       c14                           831
    rhs       c15                          2345
    rhs       c16                          1920
    rhs       c17                          2223
    rhs       c18                          1830
    rhs       c19                          1647
    rhs       c20                          2022
    rhs       c21                           737
    rhs       c22                          1861
    rhs       c23                          1394
    rhs       c24                           817
    rhs       c25                          2106
    rhs       c26                          2944
    rhs       c27                          2992
    rhs       c28                           855
    rhs       c29                          1927
    rhs       c30                          1831
BOUNDS
 LI bnd       x1        0
 LI bnd       x2        0
 LI bnd       x3        0
 LI bnd       x4        0
 LI bnd       x5        0
 LI bnd       x6        0
 LI bnd       x7        0
 LI bnd       x8        0
 LI bnd       x9        0
 LI bnd       x10       0
 LI bnd       x11       0
 LI bnd       x12       0
 LI bnd       x13       0
 LI bnd       x14       0
 LI bnd       x15       0
 LI bnd       x16       0
 LI bnd       x17       0
 LI bnd       x18       0
 LI bnd       x19       0
 LI bnd       x20       0
 LI bnd       x21       0
 LI bnd       x22       0
 LI bnd       x23       0
 LI bnd       x24       0
 LI bnd       x25       0
 LI bnd       x26       0
 LI bnd       x27       0
 LI bnd       x28       0
 LI bnd       x29       0
 LI bnd       x30       0
 LI bnd       x31       0
 LI bnd       x32       0
 LI bnd       x33       0
 LI bnd       x34       0
 LI bnd       x35       0
 LI bnd       x36       0
 LI bnd       x37       0
 LI bnd       x38       0
 LI bnd       x39       0
 LI bnd       x40       0
 LI bnd       x41       0
 LI bnd       x42       0
 LI bnd       x43       0
 LI bnd       x44       0
 LI bnd       x45       0
 LI bnd       x46       0
 LI bnd       x47       0
 LI bnd       x48       0
 LI bnd       x49       0
 LI bnd       x50       0
 LI bnd       x51       0
 LI bnd       x52       0
 LI bnd       x53       0
 LI bnd       x54       0
 LI bnd       x55       0
 LI bnd       x56       0
 LI bnd       x57       0
 LI bnd       x58       0
 LI bnd       x59       0
 LI bnd       x60       0
ENDATA
